[669, 689, 681, 649, 657, 676, 670, 659, 668, 656, 1331, 1330, 1349, 1368, 1360, 1303, 1310, 1326, 1327, 1351, 2636, 2647, 2636, 2658, 2637, 2699, 2618, 2689, 2664, 2673, 5333, 5376, 5322, 5307, 5402, 5350, 5342, 5294, 5313, 5312, 10615, 10621, 10664, 10559, 10585, 10584, 10657, 10657, 10665, 10593]
